50 1001
300 798 429 66 624 702 999 402 198 906 204 720 408 327 150 618 612 15 321 681 792 606 801 894 246 45 975 822 63 96 387 807 507 612 243 570 150 702 564 897 714 597 39 849 306 168 660 636 978 129 
299 796 429 65 623 702 999 401 196 904 204 720 408 327 148 617 611 15 320 679 791 604 801 893 246 44 973 821 63 94 386 805 505 612 241 570 150 700 564 897 713 595 39 848 304 168 658 634 978 127 
